1 -1 -2 0
1 3 -4 0
1 -5 6 0
1 5 -2 0
1 4 -7 0
1 4 -8 0
1 2 -9 0
1 -2 10 0
1 -2 7 0
1 2 5 0
1 -11 -9 0
1 11 12 0
1 13 -14 0
1 -7 15 0
1 -7 -16 0
1 7 -12 0
1 -7 -6 0
1 -7 -17 0
1 7 -2 0
1 -8 14 0
1 8 -18 0
1 10 19 0
1 10 -20 0
1 -20 10 0
1 20 -21 0
1 -16 -22 0
1 16 17 0
1 15 23 0
1 -15 24 0
1 -21 -22 0
1 -22 16 0
1 -22 25 0
1 -26 -27 0
1 26 28 0
1 -26 -29 0
1 -27 30 0
1 18 10 0
1 18 31 0
1 -32 -27 0
1 -32 -31 0
1 32 -26 0
1 -32 21 0
1 32 33 0
1 25 26 0
1 28 22 0
1 -28 34 0
1 28 26 0
1 28 -21 0
1 -35 36 0
1 35 -37 0
1 -38 35 0
1 -39 -40 0
1 -41 42 0
1 43 -14 0
1 37 12 0
1 37 -38 0
1 37 44 0
1 -36 -45 0
1 -40 46 0
1 -40 41 0
1 40 38 0
1 47 42 0
1 -12 -42 0
1 12 -47 0
1 12 13 0
1 14 48 0
1 14 -49 0
1 -19 -50 0
1 -19 -51 0
1 -19 -49 0
1 19 -11 0
1 48 -9 0
1 -52 30 0
1 52 19 0
1 -52 12 0
1 52 -14 0
1 -50 -12 0
1 50 44 0
1 42 -14 0
1 42 47 0
1 24 -48 0
1 24 -6 0
1 -24 -52 0
1 -9 15 0
1 9 -22 0
1 9 49 0
1 -9 6 0
1 -29 15 0
1 29 53 0
1 29 54 0
1 30 55 0
1 30 -56 0
1 -30 29 0
1 -30 -54 0
1 30 57 0
1 -58 59 0
1 -58 -14 0
1 60 29 0
1 -60 -24 0
1 54 61 0
1 -62 56 0
1 -34 -28 0
1 -34 -63 0
1 -64 65 0
1 -64 -63 0
1 -64 -25 0
1 64 -58 0
1 -56 -31 0
1 -56 -4 0
1 -56 -29 0
1 56 64 0
1 -66 34 0
1 -66 56 0
1 -67 11 0
1 67 64 0
1 -57 30 0
1 57 68 0
1 -57 69 0
1 -57 -64 0
1 -57 62 0
1 -31 65 0
1 31 -33 0
1 -33 66 0
1 -33 -65 0
1 33 -56 0
1 -33 -25 0
1 -70 71 0
1 72 56 0
1 73 -74 0
1 73 75 0
1 73 -20 0
1 73 76 0
1 65 -31 0
1 65 -77 0
1 -63 78 0
1 -63 6 0
1 -63 -77 0
1 -63 79 0
1 -63 80 0
1 23 -81 0
1 -75 -82 0
1 -75 83 0
1 -75 71 0
1 -76 65 0
1 76 -75 0
1 -74 65 0
1 -74 78 0
1 84 -85 0
1 71 -18 0
1 71 -72 0
1 -85 32 0
1 -85 75 0
1 85 -86 0
1 85 70 0
1 85 -87 0
1 85 -84 0
1 83 -88 0
1 -83 74 0
1 83 -82 0
1 -83 -72 0
1 82 -28 0
1 -82 77 0
1 -82 84 0
1 -89 90 0
1 -91 -90 0
1 92 93 0
1 90 94 0
1 90 91 0
1 90 95 0
1 -94 89 0
1 96 97 0
1 96 -98 0
1 -96 -99 0
1 -45 99 0
1 45 96 0
1 -100 36 0
1 -100 -98 0
1 -100 -101 0
1 -100 -40 0
1 -100 102 0
1 -51 36 0
1 51 19 0
1 51 -97 0
1 51 98 0
1 -103 -55 0
1 103 -45 0
1 -103 104 0
1 98 -45 0
1 -98 -91 0
1 -98 -44 0
1 99 -97 0
1 -97 105 0
1 97 -106 0
1 -97 91 0
1 97 107 0
1 44 -101 0
1 -46 -44 0
1 -46 -103 0
1 -53 108 0
1 53 109 0
1 -53 -101 0
1 -53 110 0
1 -53 111 0
1 -53 102 0
1 -108 112 0
1 -113 -108 0
1 -113 51 0
1 113 53 0
1 -102 -46 0
1 101 51 0
1 101 104 0
1 -101 53 0
1 101 -114 0
1 115 -108 0
1 -116 48 0
1 116 -110 0
1 -116 -52 0
1 -117 118 0
1 -117 111 0
1 117 -54 0
1 119 -109 0
1 -119 -120 0
1 -119 113 0
1 -119 121 0
1 -119 -122 0
1 -119 64 0
1 -109 -43 0
1 109 123 0
1 -111 -124 0
1 111 117 0
1 111 61 0
1 125 -126 0
1 125 -119 0
1 -110 -127 0
1 110 -128 0
1 -110 -112 0
1 110 -119 0
1 123 31 0
1 123 67 0
1 -123 122 0
1 129 -109 0
1 -129 120 0
1 -129 70 0
1 -129 121 0
1 -69 109 0
1 69 -120 0
1 69 -67 0
1 69 -111 0
1 130 -78 0
1 130 -48 0
1 -122 123 0
1 -120 50 0
1 120 -131 0
1 121 120 0
1 121 132 0
1 121 -133 0
1 -121 119 0
1 78 -134 0
1 78 -135 0
1 78 63 0
1 78 59 0
1 135 136 0
1 135 69 0
1 -59 78 0
1 -59 -137 0
1 -138 139 0
1 -138 140 0
1 -138 141 0
1 -138 78 0
1 -138 -142 0
1 -138 60 0
1 -138 80 0
1 142 78 0
1 -142 -129 0
1 -142 143 0
1 142 -69 0
1 142 -144 0
1 -145 59 0
1 77 -146 0
1 147 140 0
1 -147 -82 0
1 -147 148 0
1 -147 146 0
1 147 59 0
1 -149 134 0
1 -149 -147 0
1 149 59 0
1 146 -88 0
1 146 -145 0
1 146 150 0
1 -146 -87 0
1 146 -149 0
1 146 77 0
1 -146 -151 0
1 134 -66 0
1 -134 -78 0
1 -134 150 0
1 134 146 0
1 134 77 0
1 -134 -152 0
1 -148 145 0
1 -148 149 0
1 -148 -152 0
1 153 -154 0
1 87 155 0
1 87 -85 0
1 -151 134 0
1 -151 -155 0
1 -151 156 0
1 150 -157 0
1 150 158 0
1 -159 88 0
1 -159 147 0
1 159 -160 0
1 159 161 0
1 159 -73 0
1 -159 -151 0
1 -155 147 0
1 -155 -161 0
1 79 87 0
1 79 -162 0
1 -79 -163 0
1 -164 -147 0
1 165 -155 0
1 165 -156 0
1 -165 159 0
1 165 -158 0
1 86 160 0
1 86 161 0
1 -104 166 0
1 104 115 0
1 104 -103 0
1 -105 -104 0
1 105 -99 0
1 118 93 0
1 -114 93 0
1 -166 -167 0
1 -166 114 0
1 -168 94 0
1 -167 113 0
1 167 -169 0
1 -112 -170 0
1 112 -113 0
1 112 110 0
1 171 -93 0
1 -172 173 0
1 172 -125 0
1 -172 -106 0
1 -172 -110 0
1 -172 -174 0
1 174 132 0
1 -174 -167 0
1 -174 175 0
1 170 132 0
1 -170 171 0
1 170 174 0
1 -169 172 0
1 -106 -176 0
1 106 -167 0
1 -124 125 0
1 124 -109 0
1 -124 -110 0
1 128 -173 0
1 128 120 0
1 128 -177 0
1 128 -110 0
1 128 -174 0
1 132 126 0
1 -132 -127 0
1 132 121 0
1 -133 -152 0
1 -173 108 0
1 -173 -178 0
1 -173 124 0
1 -173 -131 0
1 -173 128 0
1 179 -141 0
1 180 181 0
1 -180 -178 0
1 -177 -176 0
1 -177 171 0
1 177 182 0
1 -177 -183 0
1 141 173 0
1 141 126 0
1 -141 -131 0
1 141 122 0
1 131 -179 0
1 -140 -184 0
1 -140 -185 0
1 -143 -126 0
1 143 186 0
1 -143 -184 0
1 143 -138 0
1 -143 187 0
1 186 188 0
1 -187 139 0
1 187 -140 0
1 -187 132 0
1 187 -189 0
1 187 -136 0
1 187 -131 0
1 126 -190 0
1 126 -178 0
1 -126 -125 0
1 -126 -191 0
1 -127 -140 0
1 -127 -126 0
1 127 -132 0
1 127 191 0
1 -127 133 0
1 139 -136 0
1 -139 148 0
1 -139 -192 0
1 136 184 0
1 136 -187 0
1 136 193 0
1 136 -192 0
1 136 142 0
1 -188 -190 0
1 -188 -185 0
1 -188 193 0
1 -154 -186 0
1 154 184 0
1 154 193 0
1 185 -139 0
1 185 -140 0
1 -185 163 0
1 192 140 0
1 192 194 0
1 -184 189 0
1 -184 193 0
1 -184 -195 0
1 193 -139 0
1 -163 134 0
1 163 185 0
1 -163 -165 0
1 -194 196 0
1 162 185 0
1 162 196 0
1 -162 79 0
1 162 -192 0
1 -197 144 0
1 197 198 0
1 -197 -162 0
1 -197 -137 0
1 -198 -194 0
1 198 137 0
1 -137 154 0
1 -137 -188 0
1 -196 -138 0
1 144 197 0
1 176 199 0
1 176 170 0
1 176 180 0
1 -183 200 0
1 -183 -199 0
1 -183 -177 0
1 -183 -131 0
1 -183 -174 0
1 201 -200 0
1 -201 202 0
1 201 203 0
1 -204 199 0
1 -204 202 0
1 -205 201 0
1 205 204 0
1 199 -183 0
1 -199 205 0
1 -203 -201 0
1 -200 -204 0
1 178 199 0
1 -178 -177 0
1 178 205 0
1 182 202 0
1 182 -206 0
1 -182 179 0
1 182 -207 0
1 190 -208 0
1 -190 127 0
1 -190 -175 0
1 191 -202 0
1 191 208 0
1 -175 178 0
1 175 191 0
1 206 -178 0
1 206 -204 0
1 206 195 0
1 207 -178 0
1 189 -181 0
1 189 194 0
1 -195 -181 0
1 195 -184 0
1 195 206 0
1 -208 -190 0
1 208 189 0
1 209 -190 0
